(set-info :smt-lib-version 2.7)
(set-logic QF_EIA)
(set-info :source |
Generated by: Florian Frohn
Generator: LoAT
Application: proving lower bounds on the worst-case runtime of transition systems
Target solver: SwInE
Time limit: 1.0
Benchmarks generated by the verification tool LoAT to evaluate the SMT solver
SwInE. We extracted all benchmarks with exponentiation that were generated by
LoAT when analyzing the examples from the category LIA-Lin (linear CHCs with
linear integer arithmetic) of the CHC competitions 2022 and 2023, and when
analyzing the examples from the categories "Termination of Integer Transition
Systems" and "Complexity of Integer Transition Systems" of the Termination and
Complexity Competition 2024. From the entire set, we selected those where
* SwInE v0.1.0 or SwInE-Z3 v0.1.2 failed or needed more than 1 second, or
* SwInE-Z3 v0.1.2 failed without phasing, a technique to prevent SwInE from
  computing with huge constants (described here
  https://arxiv.org/abs/2502.04761)
If several selected benchmarks only differed in lines not containing
exponentiation, we kept only one of them. This benchmark is known to be
satisfiable with the slightly different semantics of exponentiation used by the
versions of SwInE mentioned above.
|)
(set-info :license "https://creativecommons.org/licenses/by/4.0/")
(set-info :category "industrial")
(set-info :status unknown)

(declare-fun i1 () Int)
(declare-fun it3 () Int)
(declare-fun i2 () Int)
(declare-fun it4 () Int)
(declare-fun i3 () Int)
(declare-fun it5 () Int)
(declare-fun it6 () Int)
(declare-fun i4 () Int)
(declare-fun it11 () Int)
(declare-fun it12 () Int)
(declare-fun it13 () Int)
(declare-fun it14 () Int)
(declare-fun it134 () Int)
(declare-fun it135 () Int)
(declare-fun it136 () Int)
(declare-fun it137 () Int)
(declare-fun it143 () Int)
(declare-fun it144 () Int)
(declare-fun it145 () Int)
(declare-fun it146 () Int)
(declare-fun it27 () Int)
(declare-fun it149 () Int)
(declare-fun it150 () Int)
(declare-fun it151 () Int)
(declare-fun it152 () Int)
(declare-fun it163 () Int)
(declare-fun it164 () Int)
(declare-fun it165 () Int)
(declare-fun it166 () Int)
(declare-fun it169 () Int)
(declare-fun it170 () Int)
(declare-fun it171 () Int)
(declare-fun it172 () Int)
(declare-fun it175 () Int)
(declare-fun it176 () Int)
(declare-fun it177 () Int)
(declare-fun it178 () Int)
(declare-fun it153 () Int)
(declare-fun it183 () Int)
(declare-fun it184 () Int)
(declare-fun it185 () Int)
(declare-fun it186 () Int)
(assert (= (+ i1 (- 1)) 0))
(assert (= (+ it3 (- 2)) 0))
(assert (= (+ it4 (* i2 (- 1)) (- 1)) 0))
(assert (= (+ it5 (* i3 (- 1))) 0))
(assert (= (+ (* i4 (- 1)) it6) 0))
(assert (and (>= it5 0) (= (+ it3 (- 2)) 0)))
(assert (= (+ it11 (- 3)) 0))
(assert (= (+ (* it4 (- 1)) it12 (- 1)) 0))
(assert (= (+ it13 (* it5 (- 1))) 0))
(assert (= (+ it14 (* it6 (- 1))) 0))
(assert (and (= (+ it11 (- 3)) 0) (>= it13 0)))
(assert (= (+ it134 (- 5)) 0))
(assert (= (+ it135 (* it12 (- 1)) (- 1)) 0))
(assert (= (+ (* it13 (- 1)) it136) 0))
(assert (= (+ (* it14 (- 1)) it137) 0))
(assert (and (= (+ it134 (- 5)) 0) (>= (+ it136 (- 2)) 0)))
(assert (= (+ it143 (- 6)) 0))
(assert (= (+ it144 (* it135 (- 1)) (- 1)) 0))
(assert (= (+ it145 (* it136 (- 1))) 0))
(assert (= (+ it146 (- 1)) 0))
(assert (let ((a!1 (+ (* (** 2 (+ it27 (- 1))) (+ 0 it146) (+ 0 (- 1)))
              (+ 0 it145)
              (+ 0 (- 1)))))
  (and (>= (+ it145 (* it146 (- 1)) (- 1)) 0)
       (>= a!1 (+ 0 0))
       (>= (+ (* it143 (- 1)) 6) 0)
       (>= (+ it27 (- 1)) 0)
       (>= (+ it143 (- 6)) 0))))
(assert (= (+ (* it143 (- 1)) it149) 0))
(assert (= (+ (* it144 (- 1)) it150 (* it27 (- 2))) 0))
(assert (= (+ (* it145 (- 1)) it151) 0))
(assert (= (+ (* (** 2 it27) (+ 0 it146) (+ 0 (- 1))) (+ 0 it152))
   (+ 0 0)))
(assert (and (= (+ it149 (- 6)) 0) (>= (+ (* it151 (- 1)) it152) 0)))
(assert (= (+ it163 (- 3)) 0))
(assert (= (+ (* it150 (- 1)) it164 (- 2)) 0))
(assert (= (+ it165 (* it151 (- 1)) 1) 0))
(assert (= (+ it166 (* it152 (- 1))) 0))
(assert (and (>= it165 0) (= (+ it163 (- 3)) 0)))
(assert (= (+ it169 (- 5)) 0))
(assert (= (+ it170 (* it164 (- 1)) (- 1)) 0))
(assert (= (+ (* it165 (- 1)) it171) 0))
(assert (= (+ it172 (* it166 (- 1))) 0))
(assert (and (>= (+ it171 (- 2)) 0) (= (+ it169 (- 5)) 0)))
(assert (= (+ it175 (- 6)) 0))
(assert (= (+ it176 (* it170 (- 1)) (- 1)) 0))
(assert (= (+ it177 (* it171 (- 1))) 0))
(assert (= (+ it178 (- 1)) 0))
(assert (let ((a!1 (+ (+ 0 it177)
              (* (** 2 (+ it153 (- 1))) (+ 0 it178) (+ 0 (- 1)))
              (+ 0 (- 1)))))
  (and (>= (+ (* it175 (- 1)) 6) 0)
       (>= (+ it175 (- 6)) 0)
       (>= (+ it153 (- 1)) 0)
       (>= (+ it177 (* it178 (- 1)) (- 1)) 0)
       (>= a!1 (+ 0 0)))))
(assert (= (+ it183 (* it175 (- 1))) 0))
(assert (= (+ (* it176 (- 1)) (* it153 (- 2)) it184) 0))
(assert (= (+ (* it177 (- 1)) it185) 0))
(assert (= (+ (+ 0 it186) (* (** 2 it153) (+ 0 it178) (+ 0 (- 1))))
   (+ 0 0)))
(assert (and (= (+ it183 (- 6)) 0) (>= (+ (* it186 (- 1)) it185 (- 1)) 0)))
(check-sat)
(exit)
